
Gurobi 6.5.2 (linux64) logging started Tue Sep  6 10:06:25 2016

Optimize a model with 101 rows, 663 columns and 1443 nonzeros
Coefficient statistics:
  Matrix range    [1e+00, 2e+00]
  Objective range [1e+00, 1e+02]
  Bounds range    [1e+00, 1e+00]
  RHS range       [1e+00, 1e+00]
Presolve removed 30 rows and 6 columns
Presolve time: 0.00s
Presolved: 71 rows, 657 columns, 1340 nonzeros
Variable types: 0 continuous, 657 integer (657 binary)

Root relaxation: objective 6.590000e+02, 60 iterations, 0.00 seconds

    Nodes    |    Current Node    |     Objective Bounds      |     Work
 Expl Unexpl |  Obj  Depth IntInf | Incumbent    BestBd   Gap | It/Node Time

     0     0  659.00000    0    8          -  659.00000      -     -    0s
     0     0  672.00000    0   11          -  672.00000      -     -    0s
     0     0  678.50000    0   18          -  678.50000      -     -    0s
H    0     0                     684.0000000  678.50000  0.80%     -    0s
     0     0  680.50000    0   10  684.00000  680.50000  0.51%     -    0s
     0     0  680.50000    0   13  684.00000  680.50000  0.51%     -    0s
     0     0  682.50000    0    9  684.00000  682.50000  0.22%     -    0s

Cutting planes:
  Gomory: 3
  Cover: 4
  Clique: 1
  MIR: 2

Explored 0 nodes (161 simplex iterations) in 0.05 seconds
Thread count was 8 (of 8 available processors)

Optimal solution found (tolerance 1.00e-04)
Best objective 6.840000000000e+02, best bound 6.840000000000e+02, gap 0.0%
